750
400 400
1 280 428
2 280 41
3 279 959
4 279 594
5 279 268
6 279 99
7 279 417
8 279 804
9 279 59
10 278 4
11 278 559
12 278 292
13 278 262
14 276 659
15 276 801
16 275 878
17 274 338
18 274 917
19 274 771
20 274 612
21 273 372
22 273 115
23 273 216
24 273 560
25 272 772
26 272 706
27 272 787
28 272 194
29 271 71
30 271 480
31 271 139
32 271 785
33 271 99
34 271 727
35 270 531
36 270 887
37 269 697
38 268 399
39 268 941
40 267 462
41 267 159
42 267 680
43 267 385
44 265 660
45 264 17
46 264 916
47 264 982
48 264 431
49 264 924
50 263 935
51 263 904
52 262 256
53 262 532
54 261 947
55 261 390
56 261 981
57 261 852
58 261 112
59 261 824
60 260 358
61 260 178
62 260 594
63 259 969
64 259 413
65 258 62
66 258 523
67 258 524
68 258 414
69 258 262
70 257 440
71 257 139
72 257 187
73 257 774
74 257 775
75 256 934
76 256 162
77 256 850
78 256 513
79 256 564
80 256 34
81 255 822
82 255 363
83 255 952
84 255 754
85 255 721
86 253 615
87 253 645
88 253 737
89 253 603
90 253 901
91 252 607
92 252 346
93 252 540
94 252 900
95 251 600
96 251 300
97 251 200
98 250 826
99 250 213
100 249 7
101 249 959
102 249 486
103 248 715
104 248 493
105 247 406
106 247 899
107 247 140
108 247 47
109 247 654
110 247 338
111 247 514
112 247 591
113 246 39
114 246 331
115 245 844
116 245 199
117 245 390
118 245 856
119 244 733
120 244 899
121 243 412
122 243 42
123 243 414
124 243 749
125 242 693
126 242 995
127 240 263
128 240 256
129 240 440
130 240 349
131 239 645
132 239 960
133 239 222
134 237 801
135 236 539
136 236 748
137 235 385
138 235 711
139 235 377
140 235 536
141 234 144
142 233 950
143 233 941
144 233 311
145 233 589
146 232 652
147 232 375
148 232 54
149 232 387
150 232 523
151 232 422
152 231 155
153 231 992
154 231 174
155 230 622
156 230 941
157 230 916
158 230 519
159 229 640
160 229 510
161 229 623
162 229 975
163 228 373
164 228 595
165 227 471
166 227 822
167 227 374
168 226 370
169 225 140
170 225 857
171 225 933
172 225 300
173 225 556
174 225 774
175 224 735
176 224 442
177 224 497
178 224 123
179 224 339
180 224 582
181 224 62
182 223 283
183 223 88
184 222 915
185 222 776
186 222 69
187 222 486
188 222 837
189 222 797
190 221 199
191 221 46
192 221 645
193 221 659
194 220 241
195 220 97
196 220 585
197 219 743
198 219 178
199 219 404
200 219 840
201 219 662
202 219 188
203 219 737
204 219 193
205 218 799
206 218 688
207 217 862
208 217 101
209 217 704
210 217 302
211 216 368
212 215 943
213 215 666
214 214 431
215 214 655
216 214 640
217 213 840
218 213 636
219 213 214
220 213 619
221 213 273
222 212 911
223 211 708
224 211 37
225 211 413
226 210 732
227 210 602
228 210 940
229 210 940
230 210 526
231 210 181
232 210 768
233 210 62
234 209 995
235 207 263
236 207 780
237 207 543
238 206 788
239 206 316
240 204 705
241 204 894
242 204 459
243 204 526
244 204 762
245 204 655
246 203 112
247 202 495
248 202 497
249 202 159
250 202 579
251 202 672
252 201 367
253 201 960
254 201 836
255 200 670
256 200 765
257 199 117
258 199 281
259 199 353
260 199 763
261 199 631
262 198 715
263 198 77
264 198 281
265 198 811
266 198 811
267 198 224
268 197 753
269 197 828
270 197 75
271 196 330
272 196 787
273 196 842
274 196 902
275 195 890
276 194 657
277 194 154
278 193 689
279 192 387
280 192 962
281 192 328
282 192 408
283 192 370
284 191 394
285 191 431
286 190 684
287 190 332
288 190 178
289 190 112
290 190 696
291 190 324
292 189 186
293 189 70
294 189 650
295 188 339
296 188 168
297 188 457
298 188 99
299 187 776
300 187 898
301 186 582
302 186 76
303 186 909
304 186 684
305 185 560
306 185 488
307 185 589
308 184 490
309 183 3
310 183 118
311 183 347
312 183 718
313 183 987
314 182 559
315 182 227
316 182 623
317 182 32
318 181 972
319 180 343
320 180 645
321 180 188
322 180 754
323 179 116
324 179 145
325 179 954
326 178 854
327 177 645
328 177 449
329 176 788
330 176 556
331 176 315
332 175 646
333 175 767
334 174 971
335 174 856
336 173 811
337 173 202
338 173 854
339 173 661
340 172 142
341 171 916
342 171 276
343 171 729
344 171 191
345 171 537
346 171 446
347 170 148
348 170 970
349 170 455
350 169 982
351 169 522
352 169 683
353 168 344
354 167 337
355 167 51
356 166 394
357 166 543
358 166 246
359 165 890
360 165 724
361 165 245
362 165 765
363 164 379
364 164 430
365 164 522
366 163 484
367 163 743
368 162 59
369 162 548
370 162 457
371 162 687
372 161 972
373 161 690
374 160 989
375 160 380
376 160 128
377 159 417
378 159 847
379 157 42
380 156 850
381 156 726
382 156 194
383 156 929
384 156 519
385 156 213
386 155 30
387 155 144
388 155 764
389 155 285
390 154 380
391 154 256
392 154 263
393 154 736
394 154 277
395 154 477
396 153 131
397 152 612
398 152 428
399 152 579
400 151 718
401 151 533
402 151 534
403 150 861
404 150 115
405 150 63
406 150 944
407 150 69
408 150 673
409 149 666
410 148 214
411 148 88
412 148 804
413 147 773
414 147 188
415 147 21
416 147 115
417 146 262
418 145 418
419 145 798
420 145 692
421 145 507
422 144 877
423 144 429
424 144 931
425 143 653
426 143 644
427 143 716
428 142 376
429 142 820
430 141 200
431 141 839
432 141 731
433 140 687
434 140 795
435 139 522
436 139 877
437 139 594
438 138 866
439 138 450
440 138 342
441 138 896
442 137 797
443 137 838
444 137 355
445 137 846
446 136 675
447 136 975
448 136 161
449 136 641
450 136 747
451 135 0
452 135 788
453 135 737
454 135 142
455 134 189
456 133 762
457 133 754
458 133 942
459 133 569
460 132 269
461 132 372
462 131 621
463 131 493
464 131 588
465 130 301
466 130 819
467 129 940
468 129 688
469 129 789
470 129 931
471 129 650
472 129 953
473 128 693
474 128 676
475 128 291
476 128 649
477 128 848
478 127 638
479 127 636
480 127 920
481 127 28
482 126 395
483 126 768
484 126 143
485 125 600
486 125 169
487 125 993
488 125 6
489 125 97
490 124 964
491 123 979
492 123 637
493 122 622
494 122 869
495 122 731
496 122 526
497 121 694
498 121 316
499 121 291
500 121 642
501 121 555
502 120 443
503 120 72
504 120 694
505 120 456
506 119 162
507 119 933
508 119 418
509 119 772
510 118 510
511 118 742
512 118 583
513 118 761
514 118 723
515 117 734
516 117 124
517 116 803
518 116 127
519 116 163
520 116 747
521 116 424
522 116 95
523 115 279
524 115 581
525 114 669
526 114 416
527 113 356
528 113 691
529 111 373
530 111 334
531 110 386
532 110 98
533 110 125
534 109 338
535 109 292
536 109 665
537 109 824
538 109 833
539 109 449
540 108 740
541 107 600
542 106 381
543 106 591
544 106 549
545 105 621
546 105 781
547 105 835
548 104 677
549 104 678
550 104 782
551 103 865
552 103 893
553 102 323
554 101 610
555 101 910
556 100 107
557 99 895
558 99 748
559 99 226
560 98 879
561 98 970
562 98 289
563 98 575
564 97 314
565 97 423
566 97 191
567 97 106
568 96 530
569 96 147
570 96 238
571 95 785
572 95 584
573 95 851
574 95 171
575 95 574
576 95 767
577 95 144
578 95 471
579 94 211
580 94 930
581 94 467
582 94 216
583 94 148
584 94 664
585 93 795
586 93 365
587 93 483
588 92 997
589 92 711
590 90 286
591 90 557
592 90 837
593 90 127
594 89 589
595 89 370
596 89 699
597 88 510
598 87 563
599 86 836
600 86 402
601 86 168
602 86 857
603 85 589
604 84 327
605 84 707
606 84 307
607 84 231
608 83 968
609 83 686
610 83 587
611 83 202
612 82 583
613 82 798
614 82 503
615 82 721
616 82 124
617 81 801
618 81 884
619 81 777
620 81 376
621 81 531
622 81 263
623 80 643
624 80 384
625 80 33
626 79 280
627 79 165
628 79 654
629 79 699
630 79 676
631 78 382
632 78 490
633 78 406
634 78 196
635 78 323
636 78 758
637 77 550
638 77 988
639 76 274
640 76 45
641 75 645
642 74 341
643 74 881
644 74 491
645 74 90
646 74 709
647 71 871
648 71 345
649 71 216
650 71 130
651 71 940
652 71 380
653 71 521
654 71 237
655 70 822
656 70 652
657 69 990
658 69 741
659 69 713
660 69 942
661 68 260
662 68 163
663 67 674
664 67 936
665 67 1000
666 67 534
667 66 808
668 65 526
669 65 540
670 64 274
671 64 971
672 64 429
673 64 982
674 63 513
675 63 308
676 62 586
677 62 544
678 62 119
679 61 250
680 61 630
681 60 795
682 60 550
683 59 148
684 59 701
685 59 984
686 59 398
687 58 164
688 58 698
689 58 492
690 57 688
691 57 363
692 57 781
693 56 644
694 56 472
695 55 388
696 55 797
697 55 110
698 53 306
699 53 893
700 53 497
701 53 365
702 52 160
703 52 483
704 52 56
705 52 79
706 51 41
707 51 754
708 51 673
709 51 837
710 51 692
711 50 420
712 50 503
713 50 570
714 49 437
715 49 982
716 49 789
717 49 440
718 49 115
719 49 966
720 49 201
721 48 29
722 48 453
723 47 345
724 47 861
725 46 558
726 46 713
727 46 99
728 46 843
729 45 686
730 44 64
731 44 929
732 44 747
733 44 107
734 44 255
735 43 176
736 43 746
737 43 330
738 42 730
739 42 568
740 42 591
741 41 576
742 41 358
743 41 816
744 41 278
745 41 794
746 41 936
747 40 963
748 40 393
749 40 20
750 40 480
